benchmark_str_length/p2_10_4-2.dzn
Alphabet = {A,C,G,T};
ns = 10;
nc = 4;
sl = 10;
neighbours = [| I(A),I(A),Null,Null | I(C),Null,Null,Null | I(A),I(A),I(A),Null | I(A),I(G),I(A),I(A) | I(C),I(G),Null,Null | I(G),I(A),Null,Null | I(G),I(C),I(A),Null | I(C),I(T),I(T),Null | I(G),I(G),I(G),I(G) | I(C),I(G),I(T),Null |];
